p cnf 997 2194
1 -2 0
2 -1 0
3 4 0
5 4 0
-3 -5 -4 0
-6 4 -7 0
6 -4 -7 0
7 -4 -6 0
6 4 7 0
-7 0
8 9 0
10 9 0
-8 -10 -9 0
-5 9 -11 0
5 -9 -11 0
11 -9 -5 0
5 9 11 0
-11 0
12 13 0
14 13 0
-12 -14 -13 0
-10 13 -15 0
10 -13 -15 0
15 -13 -10 0
10 13 15 0
-15 0
16 17 0
18 17 0
-16 -18 -17 0
-14 17 -19 0
14 -17 -19 0
19 -17 -14 0
14 17 19 0
-19 0
20 21 0
22 21 0
-20 -22 -21 0
-18 21 -23 0
18 -21 -23 0
23 -21 -18 0
18 21 23 0
-23 0
24 25 0
26 25 0
-24 -26 -25 0
-22 25 -27 0
22 -25 -27 0
27 -25 -22 0
22 25 27 0
-27 0
12 28 0
16 28 0
20 28 0
24 28 0
29 28 0
-30 0
-26 28 -31 0
26 -28 -31 0
31 -28 -26 0
26 28 31 0
-31 0
32 33 0
34 33 0
-32 -34 -33 0
-35 33 -36 0
35 -33 -36 0
36 -33 -35 0
35 33 36 0
-36 0
37 38 0
39 38 0
-37 -39 -38 0
-34 38 -40 0
34 -38 -40 0
40 -38 -34 0
34 38 40 0
-40 0
41 42 0
43 42 0
-41 -43 -42 0
-39 42 -44 0
39 -42 -44 0
44 -42 -39 0
39 42 44 0
-44 0
45 46 0
47 46 0
-45 -47 -46 0
-43 46 -48 0
43 -46 -48 0
48 -46 -43 0
43 46 48 0
-48 0
49 50 0
51 50 0
-49 -51 -50 0
-47 50 -52 0
47 -50 -52 0
52 -50 -47 0
47 50 52 0
-52 0
53 54 0
55 54 0
-53 -55 -54 0
-51 54 -56 0
51 -54 -56 0
56 -54 -51 0
51 54 56 0
-56 0
57 58 0
59 58 0
-57 -59 -58 0
-55 58 -60 0
55 -58 -60 0
60 -58 -55 0
55 58 60 0
-60 0
61 62 0
63 62 0
-61 -63 -62 0
-59 62 -64 0
59 -62 -64 0
64 -62 -59 0
59 62 64 0
-64 0
65 66 0
67 66 0
-65 -67 -66 0
-63 66 -68 0
63 -66 -68 0
68 -66 -63 0
63 66 68 0
-68 0
69 70 0
71 70 0
-69 -71 -70 0
-67 70 -72 0
67 -70 -72 0
72 -70 -67 0
67 70 72 0
-72 0
73 74 0
75 74 0
-73 -75 -74 0
-71 74 -76 0
71 -74 -76 0
76 -74 -71 0
71 74 76 0
-76 0
57 77 0
61 77 0
65 77 0
69 77 0
73 77 0
78 77 0
-79 0
-75 77 -80 0
75 -77 -80 0
80 -77 -75 0
75 77 80 0
-80 0
81 82 0
83 82 0
-81 -83 -82 0
-84 82 -85 0
84 -82 -85 0
85 -82 -84 0
84 82 85 0
-85 0
86 87 0
88 87 0
-86 -88 -87 0
-83 87 -89 0
83 -87 -89 0
89 -87 -83 0
83 87 89 0
-89 0
90 91 0
92 91 0
-90 -92 -91 0
-88 91 -93 0
88 -91 -93 0
93 -91 -88 0
88 91 93 0
-93 0
94 95 0
96 95 0
-94 -96 -95 0
-92 95 -97 0
92 -95 -97 0
97 -95 -92 0
92 95 97 0
-97 0
98 99 0
100 99 0
-98 -100 -99 0
-96 99 -101 0
96 -99 -101 0
101 -99 -96 0
96 99 101 0
-101 0
102 103 0
104 103 0
-102 -104 -103 0
-100 103 -105 0
100 -103 -105 0
105 -103 -100 0
100 103 105 0
-105 0
106 107 0
108 107 0
-106 -108 -107 0
-104 107 -109 0
104 -107 -109 0
109 -107 -104 0
104 107 109 0
-109 0
110 111 0
112 111 0
-110 -112 -111 0
-108 111 -113 0
108 -111 -113 0
113 -111 -108 0
108 111 113 0
-113 0
114 115 0
116 115 0
-114 -116 -115 0
-112 115 -117 0
112 -115 -117 0
117 -115 -112 0
112 115 117 0
-117 0
118 119 0
120 119 0
-118 -120 -119 0
-114 119 -121 0
114 -119 -121 0
121 -119 -114 0
114 119 121 0
-121 0
106 122 0
110 122 0
116 122 0
118 122 0
123 122 0
-124 0
-120 122 -125 0
120 -122 -125 0
125 -122 -120 0
120 122 125 0
-125 0
6 126 0
127 126 0
-6 -127 -126 0
-128 126 -129 0
128 -126 -129 0
129 -126 -128 0
128 126 129 0
-129 0
130 131 0
132 131 0
-130 -132 -131 0
-133 131 -134 0
133 -131 -134 0
134 -131 -133 0
133 131 134 0
-134 0
135 136 0
137 136 0
-135 -137 -136 0
-132 136 -138 0
132 -136 -138 0
138 -136 -132 0
132 136 138 0
-138 0
139 140 0
141 140 0
-139 -141 -140 0
-137 140 -142 0
137 -140 -142 0
142 -140 -137 0
137 140 142 0
-142 0
22 143 0
144 143 0
-22 -144 -143 0
-141 143 -145 0
141 -143 -145 0
145 -143 -141 0
141 143 145 0
-145 0
146 147 0
148 147 0
-146 -148 -147 0
-149 147 -150 0
149 -147 -150 0
150 -147 -149 0
149 147 150 0
-150 0
151 152 0
153 152 0
-151 -153 -152 0
-148 152 -154 0
148 -152 -154 0
154 -152 -148 0
148 152 154 0
-154 0
155 156 0
157 156 0
-155 -157 -156 0
-153 156 -158 0
153 -156 -158 0
158 -156 -153 0
153 156 158 0
-158 0
159 160 0
161 160 0
-159 -161 -160 0
-157 160 -162 0
157 -160 -162 0
162 -160 -157 0
157 160 162 0
-162 0
163 164 0
165 164 0
-163 -165 -164 0
-161 164 -166 0
161 -164 -166 0
166 -164 -161 0
161 164 166 0
-166 0
151 167 0
155 167 0
159 167 0
163 167 0
168 167 0
-169 0
-165 167 -170 0
165 -167 -170 0
170 -167 -165 0
165 167 170 0
-170 0
171 172 0
173 172 0
-171 -173 -172 0
-174 172 -175 0
174 -172 -175 0
175 -172 -174 0
174 172 175 0
-175 0
176 177 0
178 177 0
-176 -178 -177 0
-173 177 -179 0
173 -177 -179 0
179 -177 -173 0
173 177 179 0
-179 0
180 181 0
182 181 0
-180 -182 -181 0
-178 181 -183 0
178 -181 -183 0
183 -181 -178 0
178 181 183 0
-183 0
184 185 0
186 185 0
-184 -186 -185 0
-182 185 -187 0
182 -185 -187 0
187 -185 -182 0
182 185 187 0
-187 0
188 189 0
190 189 0
-188 -190 -189 0
-186 189 -191 0
186 -189 -191 0
191 -189 -186 0
186 189 191 0
-191 0
192 193 0
194 193 0
-192 -194 -193 0
-190 193 -195 0
190 -193 -195 0
195 -193 -190 0
190 193 195 0
-195 0
184 196 0
188 196 0
192 196 0
197 196 0
-198 0
-194 196 -199 0
194 -196 -199 0
199 -196 -194 0
194 196 199 0
-199 0
200 201 0
202 201 0
-200 -202 -201 0
-203 201 -204 0
203 -201 -204 0
204 -201 -203 0
203 201 204 0
-204 0
205 206 0
207 206 0
-205 -207 -206 0
-202 206 -208 0
202 -206 -208 0
208 -206 -202 0
202 206 208 0
-208 0
186 209 0
210 209 0
-186 -210 -209 0
-207 209 -211 0
207 -209 -211 0
211 -209 -207 0
207 209 211 0
-211 0
212 213 0
214 213 0
-212 -214 -213 0
-215 213 -216 0
215 -213 -216 0
216 -213 -215 0
215 213 216 0
-216 0
217 218 0
219 218 0
-217 -219 -218 0
-214 218 -220 0
214 -218 -220 0
220 -218 -214 0
214 218 220 0
-220 0
221 222 0
223 222 0
-221 -223 -222 0
-219 222 -224 0
219 -222 -224 0
224 -222 -219 0
219 222 224 0
-224 0
225 226 0
227 226 0
-225 -227 -226 0
-223 226 -228 0
223 -226 -228 0
228 -226 -223 0
223 226 228 0
-228 0
190 229 0
230 229 0
-190 -230 -229 0
-227 229 -231 0
227 -229 -231 0
231 -229 -227 0
227 229 231 0
-231 0
232 233 0
234 233 0
-232 -234 -233 0
-235 233 -236 0
235 -233 -236 0
236 -233 -235 0
235 233 236 0
-236 0
237 238 0
239 238 0
-237 -239 -238 0
-234 238 -240 0
234 -238 -240 0
240 -238 -234 0
234 238 240 0
-240 0
241 242 0
243 242 0
-241 -243 -242 0
-239 242 -244 0
239 -242 -244 0
244 -242 -239 0
239 242 244 0
-244 0
245 246 0
247 246 0
-245 -247 -246 0
-243 246 -248 0
243 -246 -248 0
248 -246 -243 0
243 246 248 0
-248 0
249 250 0
251 250 0
-249 -251 -250 0
-247 250 -252 0
247 -250 -252 0
252 -250 -247 0
247 250 252 0
-252 0
253 254 0
255 254 0
-253 -255 -254 0
-251 254 -256 0
251 -254 -256 0
256 -254 -251 0
251 254 256 0
-256 0
257 258 0
259 258 0
-257 -259 -258 0
-255 258 -260 0
255 -258 -260 0
260 -258 -255 0
255 258 260 0
-260 0
261 262 0
263 262 0
-261 -263 -262 0
-259 262 -264 0
259 -262 -264 0
264 -262 -259 0
259 262 264 0
-264 0
265 266 0
267 266 0
-265 -267 -266 0
-263 266 -268 0
263 -266 -268 0
268 -266 -263 0
263 266 268 0
-268 0
269 270 0
271 270 0
-269 -271 -270 0
-267 270 -272 0
267 -270 -272 0
272 -270 -267 0
267 270 272 0
-272 0
253 273 0
257 273 0
261 273 0
265 273 0
269 273 0
274 273 0
-275 0
-271 273 -276 0
271 -273 -276 0
276 -273 -271 0
271 273 276 0
-276 0
277 278 0
279 278 0
-277 -279 -278 0
-280 278 -281 0
280 -278 -281 0
281 -278 -280 0
280 278 281 0
-281 0
282 283 0
284 283 0
-282 -284 -283 0
-279 283 -285 0
279 -283 -285 0
285 -283 -279 0
279 283 285 0
-285 0
286 287 0
288 287 0
-286 -288 -287 0
-284 287 -289 0
284 -287 -289 0
289 -287 -284 0
284 287 289 0
-289 0
290 291 0
292 291 0
-290 -292 -291 0
-288 291 -293 0
288 -291 -293 0
293 -291 -288 0
288 291 293 0
-293 0
294 295 0
296 295 0
-294 -296 -295 0
-292 295 -297 0
292 -295 -297 0
297 -295 -292 0
292 295 297 0
-297 0
298 299 0
300 299 0
-298 -300 -299 0
-296 299 -301 0
296 -299 -301 0
301 -299 -296 0
296 299 301 0
-301 0
302 303 0
304 303 0
-302 -304 -303 0
-300 303 -305 0
300 -303 -305 0
305 -303 -300 0
300 303 305 0
-305 0
306 307 0
308 307 0
-306 -308 -307 0
-304 307 -309 0
304 -307 -309 0
309 -307 -304 0
304 307 309 0
-309 0
310 311 0
312 311 0
-310 -312 -311 0
-308 311 -313 0
308 -311 -313 0
313 -311 -308 0
308 311 313 0
-313 0
314 315 0
316 315 0
-314 -316 -315 0
-312 315 -317 0
312 -315 -317 0
317 -315 -312 0
312 315 317 0
-317 0
318 319 0
320 319 0
-318 -320 -319 0
-316 319 -321 0
316 -319 -321 0
321 -319 -316 0
316 319 321 0
-321 0
302 322 0
306 322 0
310 322 0
314 322 0
318 322 0
323 322 0
-324 0
-320 322 -325 0
320 -322 -325 0
325 -322 -320 0
320 322 325 0
-325 0
326 327 0
328 327 0
-326 -328 -327 0
-329 327 -330 0
329 -327 -330 0
330 -327 -329 0
329 327 330 0
-330 0
331 332 0
333 332 0
-331 -333 -332 0
-328 332 -334 0
328 -332 -334 0
334 -332 -328 0
328 332 334 0
-334 0
335 336 0
337 336 0
-335 -337 -336 0
-333 336 -338 0
333 -336 -338 0
338 -336 -333 0
333 336 338 0
-338 0
339 340 0
341 340 0
-339 -341 -340 0
-337 340 -342 0
337 -340 -342 0
342 -340 -337 0
337 340 342 0
-342 0
343 344 0
345 344 0
-343 -345 -344 0
-341 344 -346 0
341 -344 -346 0
346 -344 -341 0
341 344 346 0
-346 0
347 348 0
349 348 0
-347 -349 -348 0
-345 348 -350 0
345 -348 -350 0
350 -348 -345 0
345 348 350 0
-350 0
351 352 0
353 352 0
-351 -353 -352 0
-349 352 -354 0
349 -352 -354 0
354 -352 -349 0
349 352 354 0
-354 0
355 356 0
357 356 0
-355 -357 -356 0
-353 356 -358 0
353 -356 -358 0
358 -356 -353 0
353 356 358 0
-358 0
359 360 0
361 360 0
-359 -361 -360 0
-357 360 -362 0
357 -360 -362 0
362 -360 -357 0
357 360 362 0
-362 0
363 364 0
365 364 0
-363 -365 -364 0
-361 364 -366 0
361 -364 -366 0
366 -364 -361 0
361 364 366 0
-366 0
363 -367 0
367 -363 0
368 369 0
370 369 0
-368 -370 -369 0
-371 369 -372 0
371 -369 -372 0
372 -369 -371 0
371 369 372 0
-372 0
373 374 0
375 374 0
-373 -375 -374 0
-370 374 -376 0
370 -374 -376 0
376 -374 -370 0
370 374 376 0
-376 0
377 378 0
379 378 0
-377 -379 -378 0
-375 378 -380 0
375 -378 -380 0
380 -378 -375 0
375 378 380 0
-380 0
381 382 0
383 382 0
-381 -383 -382 0
-379 382 -384 0
379 -382 -384 0
384 -382 -379 0
379 382 384 0
-384 0
385 386 0
387 386 0
-385 -387 -386 0
-383 386 -388 0
383 -386 -388 0
388 -386 -383 0
383 386 388 0
-388 0
389 390 0
391 390 0
-389 -391 -390 0
-387 390 -392 0
387 -390 -392 0
392 -390 -387 0
387 390 392 0
-392 0
393 394 0
395 394 0
-393 -395 -394 0
-391 394 -396 0
391 -394 -396 0
396 -394 -391 0
391 394 396 0
-396 0
397 398 0
399 398 0
-397 -399 -398 0
-395 398 -400 0
395 -398 -400 0
400 -398 -395 0
395 398 400 0
-400 0
401 402 0
403 402 0
-401 -403 -402 0
-399 402 -404 0
399 -402 -404 0
404 -402 -399 0
399 402 404 0
-404 0
405 406 0
407 406 0
-405 -407 -406 0
-403 406 -408 0
403 -406 -408 0
408 -406 -403 0
403 406 408 0
-408 0
389 409 0
393 409 0
397 409 0
401 409 0
405 409 0
410 409 0
-411 0
-407 409 -412 0
407 -409 -412 0
412 -409 -407 0
407 409 412 0
-412 0
413 414 0
415 414 0
-413 -415 -414 0
-416 414 -417 0
416 -414 -417 0
417 -414 -416 0
416 414 417 0
-417 0
418 419 0
420 419 0
-418 -420 -419 0
-415 419 -421 0
415 -419 -421 0
421 -419 -415 0
415 419 421 0
-421 0
422 423 0
424 423 0
-422 -424 -423 0
-420 423 -425 0
420 -423 -425 0
425 -423 -420 0
420 423 425 0
-425 0
426 427 0
428 427 0
-426 -428 -427 0
-424 427 -429 0
424 -427 -429 0
429 -427 -424 0
424 427 429 0
-429 0
430 431 0
432 431 0
-430 -432 -431 0
-428 431 -433 0
428 -431 -433 0
433 -431 -428 0
428 431 433 0
-433 0
434 435 0
436 435 0
-434 -436 -435 0
-432 435 -437 0
432 -435 -437 0
437 -435 -432 0
432 435 437 0
-437 0
438 439 0
440 439 0
-438 -440 -439 0
-436 439 -441 0
436 -439 -441 0
441 -439 -436 0
436 439 441 0
-441 0
442 443 0
444 443 0
-442 -444 -443 0
-440 443 -445 0
440 -443 -445 0
445 -443 -440 0
440 443 445 0
-445 0
446 447 0
448 447 0
-446 -448 -447 0
-444 447 -449 0
444 -447 -449 0
449 -447 -444 0
444 447 449 0
-449 0
434 450 0
438 450 0
442 450 0
446 450 0
451 450 0
-452 0
-448 450 -453 0
448 -450 -453 0
453 -450 -448 0
448 450 453 0
-453 0
454 455 0
456 455 0
-454 -456 -455 0
-457 455 -458 0
457 -455 -458 0
458 -455 -457 0
457 455 458 0
-458 0
459 460 0
461 460 0
-459 -461 -460 0
-456 460 -462 0
456 -460 -462 0
462 -460 -456 0
456 460 462 0
-462 0
463 464 0
465 464 0
-463 -465 -464 0
-461 464 -466 0
461 -464 -466 0
466 -464 -461 0
461 464 466 0
-466 0
467 468 0
469 468 0
-467 -469 -468 0
-465 468 -470 0
465 -468 -470 0
470 -468 -465 0
465 468 470 0
-470 0
471 472 0
473 472 0
-471 -473 -472 0
-469 472 -474 0
469 -472 -474 0
474 -472 -469 0
469 472 474 0
-474 0
475 476 0
477 476 0
-475 -477 -476 0
-473 476 -478 0
473 -476 -478 0
478 -476 -473 0
473 476 478 0
-478 0
479 480 0
481 480 0
-479 -481 -480 0
-477 480 -482 0
477 -480 -482 0
482 -480 -477 0
477 480 482 0
-482 0
483 484 0
485 484 0
-483 -485 -484 0
-481 484 -486 0
481 -484 -486 0
486 -484 -481 0
481 484 486 0
-486 0
475 487 0
479 487 0
483 487 0
488 487 0
-489 0
-485 487 -490 0
485 -487 -490 0
490 -487 -485 0
485 487 490 0
-490 0
491 492 0
493 492 0
-491 -493 -492 0
-494 492 -495 0
494 -492 -495 0
495 -492 -494 0
494 492 495 0
-495 0
496 497 0
498 497 0
-496 -498 -497 0
-493 497 -499 0
493 -497 -499 0
499 -497 -493 0
493 497 499 0
-499 0
500 501 0
502 501 0
-500 -502 -501 0
-498 501 -503 0
498 -501 -503 0
503 -501 -498 0
498 501 503 0
-503 0
504 505 0
506 505 0
-504 -506 -505 0
-502 505 -507 0
502 -505 -507 0
507 -505 -502 0
502 505 507 0
-507 0
477 508 0
509 508 0
-477 -509 -508 0
-506 508 -510 0
506 -508 -510 0
510 -508 -506 0
506 508 510 0
-510 0
511 512 0
513 512 0
-511 -513 -512 0
-514 512 -515 0
514 -512 -515 0
515 -512 -514 0
514 512 515 0
-515 0
516 517 0
518 517 0
-516 -518 -517 0
-513 517 -519 0
513 -517 -519 0
519 -517 -513 0
513 517 519 0
-519 0
520 521 0
522 521 0
-520 -522 -521 0
-518 521 -523 0
518 -521 -523 0
523 -521 -518 0
518 521 523 0
-523 0
399 524 0
525 524 0
-399 -525 -524 0
-522 524 -526 0
522 -524 -526 0
526 -524 -522 0
522 524 526 0
-526 0
527 528 0
529 528 0
-527 -529 -528 0
-530 528 -531 0
530 -528 -531 0
531 -528 -530 0
530 528 531 0
-531 0
532 533 0
534 533 0
-532 -534 -533 0
-529 533 -535 0
529 -533 -535 0
535 -533 -529 0
529 533 535 0
-535 0
536 537 0
538 537 0
-536 -538 -537 0
-534 537 -539 0
534 -537 -539 0
539 -537 -534 0
534 537 539 0
-539 0
540 541 0
542 541 0
-540 -542 -541 0
-538 541 -543 0
538 -541 -543 0
543 -541 -538 0
538 541 543 0
-543 0
544 545 0
546 545 0
-544 -546 -545 0
-542 545 -547 0
542 -545 -547 0
547 -545 -542 0
542 545 547 0
-547 0
548 549 0
550 549 0
-548 -550 -549 0
-546 549 -551 0
546 -549 -551 0
551 -549 -546 0
546 549 551 0
-551 0
544 552 0
548 552 0
553 552 0
-544 -548 -553 -552 0
-550 552 -554 0
550 -552 -554 0
554 -552 -550 0
550 552 554 0
-554 0
555 556 0
557 556 0
-555 -557 -556 0
-558 556 -559 0
558 -556 -559 0
559 -556 -558 0
558 556 559 0
-559 0
560 561 0
562 561 0
-560 -562 -561 0
-557 561 -563 0
557 -561 -563 0
563 -561 -557 0
557 561 563 0
-563 0
564 565 0
566 565 0
-564 -566 -565 0
-562 565 -567 0
562 -565 -567 0
567 -565 -562 0
562 565 567 0
-567 0
568 569 0
570 569 0
-568 -570 -569 0
-566 569 -571 0
566 -569 -571 0
571 -569 -566 0
566 569 571 0
-571 0
572 573 0
574 573 0
-572 -574 -573 0
-570 573 -575 0
570 -573 -575 0
575 -573 -570 0
570 573 575 0
-575 0
1 576 0
577 576 0
-1 -577 -576 0
-574 576 -578 0
574 -576 -578 0
578 -576 -574 0
574 576 578 0
-578 0
579 580 0
581 580 0
-579 -581 -580 0
-582 580 -583 0
582 -580 -583 0
583 -580 -582 0
582 580 583 0
-583 0
584 585 0
586 585 0
-584 -586 -585 0
-581 585 -587 0
581 -585 -587 0
587 -585 -581 0
581 585 587 0
-587 0
588 589 0
590 589 0
-588 -590 -589 0
-586 589 -591 0
586 -589 -591 0
591 -589 -586 0
586 589 591 0
-591 0
592 593 0
594 593 0
-592 -594 -593 0
-590 593 -595 0
590 -593 -595 0
595 -593 -590 0
590 593 595 0
-595 0
596 597 0
598 597 0
-596 -598 -597 0
-594 597 -599 0
594 -597 -599 0
599 -597 -594 0
594 597 599 0
-599 0
600 601 0
602 601 0
-600 -602 -601 0
-598 601 -603 0
598 -601 -603 0
603 -601 -598 0
598 601 603 0
-603 0
604 605 0
606 605 0
-604 -606 -605 0
-602 605 -607 0
602 -605 -607 0
607 -605 -602 0
602 605 607 0
-607 0
596 608 0
600 608 0
604 608 0
609 608 0
-610 0
-606 608 -611 0
606 -608 -611 0
611 -608 -606 0
606 608 611 0
-611 0
612 613 0
614 613 0
-612 -614 -613 0
-615 613 -616 0
615 -613 -616 0
616 -613 -615 0
615 613 616 0
-616 0
617 618 0
619 618 0
-617 -619 -618 0
-614 618 -620 0
614 -618 -620 0
620 -618 -614 0
614 618 620 0
-620 0
621 622 0
623 622 0
-621 -623 -622 0
-619 622 -624 0
619 -622 -624 0
624 -622 -619 0
619 622 624 0
-624 0
625 626 0
627 626 0
-625 -627 -626 0
-623 626 -628 0
623 -626 -628 0
628 -626 -623 0
623 626 628 0
-628 0
629 630 0
631 630 0
-629 -631 -630 0
-627 630 -632 0
627 -630 -632 0
632 -630 -627 0
627 630 632 0
-632 0
481 633 0
634 633 0
-481 -634 -633 0
-631 633 -635 0
631 -633 -635 0
635 -633 -631 0
631 633 635 0
-635 0
636 637 0
638 637 0
-636 -638 -637 0
-639 637 -640 0
639 -637 -640 0
640 -637 -639 0
639 637 640 0
-640 0
641 642 0
643 642 0
-641 -643 -642 0
-638 642 -644 0
638 -642 -644 0
644 -642 -638 0
638 642 644 0
-644 0
645 646 0
647 646 0
-645 -647 -646 0
-643 646 -648 0
643 -646 -648 0
648 -646 -643 0
643 646 648 0
-648 0
649 650 0
651 650 0
-649 -651 -650 0
-647 650 -652 0
647 -650 -652 0
652 -650 -647 0
647 650 652 0
-652 0
67 653 0
654 653 0
-67 -654 -653 0
-651 653 -655 0
651 -653 -655 0
655 -653 -651 0
651 653 655 0
-655 0
656 657 0
658 657 0
-656 -658 -657 0
-659 657 -660 0
659 -657 -660 0
660 -657 -659 0
659 657 660 0
-660 0
661 662 0
663 662 0
-661 -663 -662 0
-658 662 -664 0
658 -662 -664 0
664 -662 -658 0
658 662 664 0
-664 0
59 665 0
666 665 0
-59 -666 -665 0
-663 665 -667 0
663 -665 -667 0
667 -665 -663 0
663 665 667 0
-667 0
668 -2 -669 0
2 -668 -669 0
-668 -2 669 0
2 668 669 0
-669 0
670 -3 -671 0
3 -670 -671 0
-670 -3 671 0
3 670 671 0
-671 0
672 -8 -673 0
8 -672 -673 0
-672 -8 673 0
8 672 673 0
-673 0
674 -12 -675 0
12 -674 -675 0
-674 -12 675 0
12 674 675 0
-675 0
676 -16 -677 0
16 -676 -677 0
-676 -16 677 0
16 676 677 0
-677 0
678 -20 -679 0
20 -678 -679 0
-678 -20 679 0
20 678 679 0
-679 0
680 -24 -681 0
24 -680 -681 0
-680 -24 681 0
24 680 681 0
-681 0
682 -29 -683 0
29 -682 -683 0
-682 -29 683 0
29 682 683 0
-683 0
684 -32 -685 0
32 -684 -685 0
-684 -32 685 0
32 684 685 0
-685 0
686 -37 -687 0
37 -686 -687 0
-686 -37 687 0
37 686 687 0
-687 0
688 -41 -689 0
41 -688 -689 0
-688 -41 689 0
41 688 689 0
-689 0
690 -45 -691 0
45 -690 -691 0
-690 -45 691 0
45 690 691 0
-691 0
692 -49 -693 0
49 -692 -693 0
-692 -49 693 0
49 692 693 0
-693 0
694 -53 -695 0
53 -694 -695 0
-694 -53 695 0
53 694 695 0
-695 0
696 -57 -697 0
57 -696 -697 0
-696 -57 697 0
57 696 697 0
-697 0
698 -61 -699 0
61 -698 -699 0
-698 -61 699 0
61 698 699 0
-699 0
700 -65 -701 0
65 -700 -701 0
-700 -65 701 0
65 700 701 0
-701 0
702 -69 -703 0
69 -702 -703 0
-702 -69 703 0
69 702 703 0
-703 0
704 -73 -705 0
73 -704 -705 0
-704 -73 705 0
73 704 705 0
-705 0
706 -78 -707 0
78 -706 -707 0
-706 -78 707 0
78 706 707 0
-707 0
708 -81 -709 0
81 -708 -709 0
-708 -81 709 0
81 708 709 0
-709 0
710 -86 -711 0
86 -710 -711 0
-710 -86 711 0
86 710 711 0
-711 0
712 -90 -713 0
90 -712 -713 0
-712 -90 713 0
90 712 713 0
-713 0
714 -94 -715 0
94 -714 -715 0
-714 -94 715 0
94 714 715 0
-715 0
716 -98 -717 0
98 -716 -717 0
-716 -98 717 0
98 716 717 0
-717 0
718 -102 -719 0
102 -718 -719 0
-718 -102 719 0
102 718 719 0
-719 0
720 -106 -721 0
106 -720 -721 0
-720 -106 721 0
106 720 721 0
-721 0
722 -110 -723 0
110 -722 -723 0
-722 -110 723 0
110 722 723 0
-723 0
724 -116 -725 0
116 -724 -725 0
-724 -116 725 0
116 724 725 0
-725 0
726 -118 -727 0
118 -726 -727 0
-726 -118 727 0
118 726 727 0
-727 0
728 -123 -729 0
123 -728 -729 0
-728 -123 729 0
123 728 729 0
-729 0
730 -127 -731 0
127 -730 -731 0
-730 -127 731 0
127 730 731 0
-731 0
732 -130 -733 0
130 -732 -733 0
-732 -130 733 0
130 732 733 0
-733 0
734 -135 -735 0
135 -734 -735 0
-734 -135 735 0
135 734 735 0
-735 0
736 -139 -737 0
139 -736 -737 0
-736 -139 737 0
139 736 737 0
-737 0
738 -144 -739 0
144 -738 -739 0
-738 -144 739 0
144 738 739 0
-739 0
740 -146 -741 0
146 -740 -741 0
-740 -146 741 0
146 740 741 0
-741 0
742 -151 -743 0
151 -742 -743 0
-742 -151 743 0
151 742 743 0
-743 0
744 -155 -745 0
155 -744 -745 0
-744 -155 745 0
155 744 745 0
-745 0
746 -159 -747 0
159 -746 -747 0
-746 -159 747 0
159 746 747 0
-747 0
748 -163 -749 0
163 -748 -749 0
-748 -163 749 0
163 748 749 0
-749 0
750 -168 -751 0
168 -750 -751 0
-750 -168 751 0
168 750 751 0
-751 0
752 -171 -753 0
171 -752 -753 0
-752 -171 753 0
171 752 753 0
-753 0
754 -176 -755 0
176 -754 -755 0
-754 -176 755 0
176 754 755 0
-755 0
756 -180 -757 0
180 -756 -757 0
-756 -180 757 0
180 756 757 0
-757 0
758 -184 -759 0
184 -758 -759 0
-758 -184 759 0
184 758 759 0
-759 0
760 -188 -761 0
188 -760 -761 0
-760 -188 761 0
188 760 761 0
-761 0
762 -192 -763 0
192 -762 -763 0
-762 -192 763 0
192 762 763 0
-763 0
764 -197 -765 0
197 -764 -765 0
-764 -197 765 0
197 764 765 0
-765 0
766 -200 -767 0
200 -766 -767 0
-766 -200 767 0
200 766 767 0
-767 0
768 -205 -769 0
205 -768 -769 0
-768 -205 769 0
205 768 769 0
-769 0
770 -210 -771 0
210 -770 -771 0
-770 -210 771 0
210 770 771 0
-771 0
772 -212 -773 0
212 -772 -773 0
-772 -212 773 0
212 772 773 0
-773 0
774 -217 -775 0
217 -774 -775 0
-774 -217 775 0
217 774 775 0
-775 0
776 -221 -777 0
221 -776 -777 0
-776 -221 777 0
221 776 777 0
-777 0
778 -225 -779 0
225 -778 -779 0
-778 -225 779 0
225 778 779 0
-779 0
780 -230 -781 0
230 -780 -781 0
-780 -230 781 0
230 780 781 0
-781 0
782 -232 -783 0
232 -782 -783 0
-782 -232 783 0
232 782 783 0
-783 0
784 -237 -785 0
237 -784 -785 0
-784 -237 785 0
237 784 785 0
-785 0
786 -241 -787 0
241 -786 -787 0
-786 -241 787 0
241 786 787 0
-787 0
788 -245 -789 0
245 -788 -789 0
-788 -245 789 0
245 788 789 0
-789 0
790 -249 -791 0
249 -790 -791 0
-790 -249 791 0
249 790 791 0
-791 0
792 -253 -793 0
253 -792 -793 0
-792 -253 793 0
253 792 793 0
-793 0
794 -257 -795 0
257 -794 -795 0
-794 -257 795 0
257 794 795 0
-795 0
796 -261 -797 0
261 -796 -797 0
-796 -261 797 0
261 796 797 0
-797 0
798 -265 -799 0
265 -798 -799 0
-798 -265 799 0
265 798 799 0
-799 0
800 -269 -801 0
269 -800 -801 0
-800 -269 801 0
269 800 801 0
-801 0
802 -274 -803 0
274 -802 -803 0
-802 -274 803 0
274 802 803 0
-803 0
804 -277 -805 0
277 -804 -805 0
-804 -277 805 0
277 804 805 0
-805 0
806 -282 -807 0
282 -806 -807 0
-806 -282 807 0
282 806 807 0
-807 0
808 -286 -809 0
286 -808 -809 0
-808 -286 809 0
286 808 809 0
-809 0
810 -290 -811 0
290 -810 -811 0
-810 -290 811 0
290 810 811 0
-811 0
812 -294 -813 0
294 -812 -813 0
-812 -294 813 0
294 812 813 0
-813 0
814 -298 -815 0
298 -814 -815 0
-814 -298 815 0
298 814 815 0
-815 0
816 -302 -817 0
302 -816 -817 0
-816 -302 817 0
302 816 817 0
-817 0
818 -306 -819 0
306 -818 -819 0
-818 -306 819 0
306 818 819 0
-819 0
820 -310 -821 0
310 -820 -821 0
-820 -310 821 0
310 820 821 0
-821 0
822 -314 -823 0
314 -822 -823 0
-822 -314 823 0
314 822 823 0
-823 0
824 -318 -825 0
318 -824 -825 0
-824 -318 825 0
318 824 825 0
-825 0
826 -323 -827 0
323 -826 -827 0
-826 -323 827 0
323 826 827 0
-827 0
828 -326 -829 0
326 -828 -829 0
-828 -326 829 0
326 828 829 0
-829 0
830 -331 -831 0
331 -830 -831 0
-830 -331 831 0
331 830 831 0
-831 0
832 -335 -833 0
335 -832 -833 0
-832 -335 833 0
335 832 833 0
-833 0
834 -339 -835 0
339 -834 -835 0
-834 -339 835 0
339 834 835 0
-835 0
836 -343 -837 0
343 -836 -837 0
-836 -343 837 0
343 836 837 0
-837 0
838 -347 -839 0
347 -838 -839 0
-838 -347 839 0
347 838 839 0
-839 0
840 -351 -841 0
351 -840 -841 0
-840 -351 841 0
351 840 841 0
-841 0
842 -355 -843 0
355 -842 -843 0
-842 -355 843 0
355 842 843 0
-843 0
844 -359 -845 0
359 -844 -845 0
-844 -359 845 0
359 844 845 0
-845 0
846 -365 -847 0
365 -846 -847 0
-846 -365 847 0
365 846 847 0
-847 0
848 -367 -849 0
367 -848 -849 0
-848 -367 849 0
367 848 849 0
-849 0
850 -368 -851 0
368 -850 -851 0
-850 -368 851 0
368 850 851 0
-851 0
852 -373 -853 0
373 -852 -853 0
-852 -373 853 0
373 852 853 0
-853 0
854 -377 -855 0
377 -854 -855 0
-854 -377 855 0
377 854 855 0
-855 0
856 -381 -857 0
381 -856 -857 0
-856 -381 857 0
381 856 857 0
-857 0
858 -385 -859 0
385 -858 -859 0
-858 -385 859 0
385 858 859 0
-859 0
860 -389 -861 0
389 -860 -861 0
-860 -389 861 0
389 860 861 0
-861 0
862 -393 -863 0
393 -862 -863 0
-862 -393 863 0
393 862 863 0
-863 0
864 -397 -865 0
397 -864 -865 0
-864 -397 865 0
397 864 865 0
-865 0
866 -401 -867 0
401 -866 -867 0
-866 -401 867 0
401 866 867 0
-867 0
868 -405 -869 0
405 -868 -869 0
-868 -405 869 0
405 868 869 0
-869 0
870 -410 -871 0
410 -870 -871 0
-870 -410 871 0
410 870 871 0
-871 0
872 -413 -873 0
413 -872 -873 0
-872 -413 873 0
413 872 873 0
-873 0
874 -418 -875 0
418 -874 -875 0
-874 -418 875 0
418 874 875 0
-875 0
876 -422 -877 0
422 -876 -877 0
-876 -422 877 0
422 876 877 0
-877 0
878 -426 -879 0
426 -878 -879 0
-878 -426 879 0
426 878 879 0
-879 0
880 -430 -881 0
430 -880 -881 0
-880 -430 881 0
430 880 881 0
-881 0
882 -434 -883 0
434 -882 -883 0
-882 -434 883 0
434 882 883 0
-883 0
884 -438 -885 0
438 -884 -885 0
-884 -438 885 0
438 884 885 0
-885 0
886 -442 -887 0
442 -886 -887 0
-886 -442 887 0
442 886 887 0
-887 0
888 -446 -889 0
446 -888 -889 0
-888 -446 889 0
446 888 889 0
-889 0
890 -451 -891 0
451 -890 -891 0
-890 -451 891 0
451 890 891 0
-891 0
892 -454 -893 0
454 -892 -893 0
-892 -454 893 0
454 892 893 0
-893 0
894 -459 -895 0
459 -894 -895 0
-894 -459 895 0
459 894 895 0
-895 0
896 -463 -897 0
463 -896 -897 0
-896 -463 897 0
463 896 897 0
-897 0
898 -467 -899 0
467 -898 -899 0
-898 -467 899 0
467 898 899 0
-899 0
900 -471 -901 0
471 -900 -901 0
-900 -471 901 0
471 900 901 0
-901 0
902 -475 -903 0
475 -902 -903 0
-902 -475 903 0
475 902 903 0
-903 0
904 -479 -905 0
479 -904 -905 0
-904 -479 905 0
479 904 905 0
-905 0
906 -483 -907 0
483 -906 -907 0
-906 -483 907 0
483 906 907 0
-907 0
908 -488 -909 0
488 -908 -909 0
-908 -488 909 0
488 908 909 0
-909 0
910 -491 -911 0
491 -910 -911 0
-910 -491 911 0
491 910 911 0
-911 0
912 -496 -913 0
496 -912 -913 0
-912 -496 913 0
496 912 913 0
-913 0
914 -500 -915 0
500 -914 -915 0
-914 -500 915 0
500 914 915 0
-915 0
916 -504 -917 0
504 -916 -917 0
-916 -504 917 0
504 916 917 0
-917 0
918 -509 -919 0
509 -918 -919 0
-918 -509 919 0
509 918 919 0
-919 0
920 -511 -921 0
511 -920 -921 0
-920 -511 921 0
511 920 921 0
-921 0
922 -516 -923 0
516 -922 -923 0
-922 -516 923 0
516 922 923 0
-923 0
924 -520 -925 0
520 -924 -925 0
-924 -520 925 0
520 924 925 0
-925 0
926 -525 -927 0
525 -926 -927 0
-926 -525 927 0
525 926 927 0
-927 0
928 -527 -929 0
527 -928 -929 0
-928 -527 929 0
527 928 929 0
-929 0
930 -532 -931 0
532 -930 -931 0
-930 -532 931 0
532 930 931 0
-931 0
932 -536 -933 0
536 -932 -933 0
-932 -536 933 0
536 932 933 0
-933 0
934 -540 -935 0
540 -934 -935 0
-934 -540 935 0
540 934 935 0
-935 0
936 -544 -937 0
544 -936 -937 0
-936 -544 937 0
544 936 937 0
-937 0
938 -548 -939 0
548 -938 -939 0
-938 -548 939 0
548 938 939 0
-939 0
940 -553 -941 0
553 -940 -941 0
-940 -553 941 0
553 940 941 0
-941 0
942 -555 -943 0
555 -942 -943 0
-942 -555 943 0
555 942 943 0
-943 0
944 -560 -945 0
560 -944 -945 0
-944 -560 945 0
560 944 945 0
-945 0
946 -564 -947 0
564 -946 -947 0
-946 -564 947 0
564 946 947 0
-947 0
948 -568 -949 0
568 -948 -949 0
-948 -568 949 0
568 948 949 0
-949 0
950 -572 -951 0
572 -950 -951 0
-950 -572 951 0
572 950 951 0
-951 0
952 -577 -953 0
577 -952 -953 0
-952 -577 953 0
577 952 953 0
-953 0
954 -579 -955 0
579 -954 -955 0
-954 -579 955 0
579 954 955 0
-955 0
956 -584 -957 0
584 -956 -957 0
-956 -584 957 0
584 956 957 0
-957 0
958 -588 -959 0
588 -958 -959 0
-958 -588 959 0
588 958 959 0
-959 0
960 -592 -961 0
592 -960 -961 0
-960 -592 961 0
592 960 961 0
-961 0
962 -596 -963 0
596 -962 -963 0
-962 -596 963 0
596 962 963 0
-963 0
964 -600 -965 0
600 -964 -965 0
-964 -600 965 0
600 964 965 0
-965 0
966 -604 -967 0
604 -966 -967 0
-966 -604 967 0
604 966 967 0
-967 0
968 -609 -969 0
609 -968 -969 0
-968 -609 969 0
609 968 969 0
-969 0
970 -612 -971 0
612 -970 -971 0
-970 -612 971 0
612 970 971 0
-971 0
972 -617 -973 0
617 -972 -973 0
-972 -617 973 0
617 972 973 0
-973 0
974 -621 -975 0
621 -974 -975 0
-974 -621 975 0
621 974 975 0
-975 0
976 -625 -977 0
625 -976 -977 0
-976 -625 977 0
625 976 977 0
-977 0
978 -629 -979 0
629 -978 -979 0
-978 -629 979 0
629 978 979 0
-979 0
980 -634 -981 0
634 -980 -981 0
-980 -634 981 0
634 980 981 0
-981 0
982 -636 -983 0
636 -982 -983 0
-982 -636 983 0
636 982 983 0
-983 0
984 -641 -985 0
641 -984 -985 0
-984 -641 985 0
641 984 985 0
-985 0
986 -645 -987 0
645 -986 -987 0
-986 -645 987 0
645 986 987 0
-987 0
988 -649 -989 0
649 -988 -989 0
-988 -649 989 0
649 988 989 0
-989 0
990 -654 -991 0
654 -990 -991 0
-990 -654 991 0
654 990 991 0
-991 0
992 -656 -993 0
656 -992 -993 0
-992 -656 993 0
656 992 993 0
-993 0
994 -661 -995 0
661 -994 -995 0
-994 -661 995 0
661 994 995 0
-995 0
996 -666 -997 0
666 -996 -997 0
-996 -666 997 0
666 996 997 0
-997 0
1 0
-6 0
-35 0
-84 0
-114 0
-128 0
-133 0
-149 0
-174 0
-203 0
-215 0
-235 0
-280 0
-329 0
-363 0
-371 0
-416 0
-457 0
-494 0
-514 0
-530 0
-558 0
-582 0
-615 0
-639 0
-659 0
